65	65	65	65	65	65	65	65	65	14	14	14	65	65	
65	65	14	14	14	65	65	65	14	65	65	14	14	65	
65	14	65	65	65	14	65	65	14	65	65	65	14	65	
65	14	65	65	65	14	65	14	65	65	65	14	14	65	
65	65	14	65	65	65	14	14	65	65	14	14	65	65	
65	65	65	14	14	14	14	14	14	14	65	65	65	65	
3	3	3	3	3	3	14	14	3	3	3	3	3	3	
3	3	3	3	3	3	14	14	3	3	3	3	3	3	
3	3	3	3	3	3	14	14	3	3	3	3	3	3	
65	139	139	139	139	139	14	14	139	139	139	139	139	65	
65	139	139	139	139	139	14	14	139	139	139	139	139	65	
65	139	139	139	139	139	14	14	139	139	139	139	139	65	
65	139	139	139	139	139	14	14	139	139	139	139	139	65	
65	139	139	139	139	139	14	14	139	139	139	139	139	65	
65	139	139	139	139	139	14	14	139	139	139	139	139	65	
65	139	139	139	139	139	14	14	139	139	139	139	139	65	
65	139	130	139	139	139	14	14	130	139	139	139	139	65	
